0 3800
2 3783
3 3780
4 3765
5 3695
6 3691
7 3659
11 3645
13 3603
14 3589
19 3567
22 3548
39 3521
46 3499
47 3475
80 3472
94 3468
111 3437
124 3415
129 3407
130 3400
146 3394
165 3382
167 3377
178 3375
179 3373
182 3358
195 3357
227 3354
286 3345
290 3335
291 3318
341 3306
351 3304
395 3283
420 3273
646 3264
713 3254
797 3248
895 3247
1013 3244
1048 3243
1373 3232
1376 3228
1437 3224
1617 3221
1651 3217
1799 3215
1970 3214
1975 3210
1988 3208
1997 3207
2005 3206
2454 3201
2519 3199
2590 3196
2640 3193
2672 3188
2756 3187
2772 3179
2788 3177
2802 3174
2888 3171
3239 3165
3293 3164
